(set-logic QF_NRA)
(set-info :source |Benchmarks generated from hycomp (https://es-static.fbk.eu/tools/hycomp/). BMC instances of non-linear hybrid automata taken from: Alessandro Cimatti, Sergio Mover, Stefano Tonetta, A quantifier-free SMT encoding of non-linear hybrid automata, FMCAD 2012 and Alessandro Cimatti, Sergio Mover, Stefano Tonetta, Quantier-free encoding of invariants for Hybrid Systems, Formal Methods in System Design. This instance solves a BMC problem of depth 1 and uses the encoding obtained with quantifier elimination using redlog encoding. Contacts: Sergio Mover (mover@fbk.eu), Stefano Tonetta (tonettas@fbk.eu), Alessandro Cimatti (cimatti@fbk.eu).|)
(set-info :smt-lib-version 2.0)
(set-info :category "industrial")
(set-info :status unsat)
;; MathSAT API call trace
;; generated on Mon Mar 19 10:42:08 2012
(declare-fun b.counter.3__AT1 () Bool)
(declare-fun b.y__AT0 () Real)
(declare-fun b.event_is_timed__AT0 () Bool)
(declare-fun b.counter.0__AT0 () Bool)
(declare-fun b.counter.1__AT0 () Bool)
(declare-fun b.time__AT1 () Real)
(declare-fun b.counter.3__AT0 () Bool)
(declare-fun b.delta__AT1 () Real)
(declare-fun b.EVENT.0__AT1 () Bool)
(declare-fun b.delta__AT0 () Real)
(declare-fun b.EVENT.1__AT1 () Bool)
(declare-fun b.speed_y__AT1 () Real)
(declare-fun b.event_is_timed__AT1 () Bool)
(declare-fun speed_loss__AT0 () Real)
(declare-fun b.counter.1__AT1 () Bool)
(declare-fun b.counter.2__AT1 () Bool)
(declare-fun b.counter.2__AT0 () Bool)
(declare-fun b.time__AT0 () Real)
(declare-fun b.speed_y__AT0 () Real)
(declare-fun b.EVENT.1__AT0 () Bool)
(declare-fun b.y__AT1 () Real)
(declare-fun b.counter.0__AT1 () Bool)
(declare-fun b.EVENT.0__AT0 () Bool)
(assert (let ((.def_261 (* 49.0 b.delta__AT1)))
(let ((.def_262 (* b.delta__AT1 .def_261)))
(let ((.def_263 (* (- 1.0) .def_262)))
(let ((.def_259 (* 10.0 b.speed_y__AT1)))
(let ((.def_260 (* b.delta__AT1 .def_259)))
(let ((.def_264 (+ .def_260 .def_263)))
(let ((.def_265 (* 10.0 b.y__AT1)))
(let ((.def_267 (+ .def_265 .def_264)))
(let ((.def_268 (<= 0.0 .def_267)))
(let ((.def_295 (not .def_268)))
(let ((.def_279 (* (- 49.0) b.delta__AT1)))
(let ((.def_270 (* 5.0 b.speed_y__AT1)))
(let ((.def_280 (+ .def_270 .def_279)))
(let ((.def_281 (<= 0.0 .def_280)))
(let ((.def_296 (and .def_281 .def_295)))
(let ((.def_291 (<= b.speed_y__AT1 0.0 )))
(let ((.def_248 (<= 0.0 b.y__AT1)))
(let ((.def_294 (or .def_248 .def_291)))
(let ((.def_297 (or .def_294 .def_296)))
(let ((.def_290 (<= b.y__AT1 0.0 )))
(let ((.def_292 (and .def_290 .def_291)))
(let ((.def_285 (<= .def_280 0.0 )))
(let ((.def_286 (not .def_285)))
(let ((.def_283 (= .def_267 0.0 )))
(let ((.def_284 (not .def_283)))
(let ((.def_287 (or .def_284 .def_286)))
(let ((.def_282 (or .def_268 .def_281)))
(let ((.def_288 (and .def_282 .def_287)))
(let ((.def_271 (* b.speed_y__AT1 .def_270)))
(let ((.def_272 (* 98.0 b.y__AT1)))
(let ((.def_274 (+ .def_272 .def_271)))
(let ((.def_277 (<= .def_274 0.0 )))
(let ((.def_278 (not .def_277)))
(let ((.def_289 (or .def_278 .def_288)))
(let ((.def_293 (or .def_289 .def_292)))
(let ((.def_298 (and .def_293 .def_297)))
(let ((.def_275 (<= 0.0 .def_274)))
(let ((.def_276 (not .def_275)))
(let ((.def_299 (or .def_276 .def_298)))
(let ((.def_257 (<= 0.0 b.delta__AT1)))
(let ((.def_258 (not .def_257)))
(let ((.def_269 (or .def_258 .def_268)))
(let ((.def_300 (and .def_269 .def_299)))
(let ((.def_245 (not b.EVENT.0__AT1)))
(let ((.def_243 (not b.EVENT.1__AT1)))
(let ((.def_254 (and .def_243 .def_245)))
(let ((.def_255 (not .def_254)))
(let ((.def_301 (or .def_255 .def_300)))
(let ((.def_58 (<= speed_loss__AT0 (/ 1 2))))
(let ((.def_55 (<= (/ 1 10) speed_loss__AT0)))
(let ((.def_59 (and .def_55 .def_58)))
(let ((.def_249 (and .def_59 .def_248)))
(let ((.def_246 (or .def_243 .def_245)))
(let ((.def_6 (not b.counter.0__AT1)))
(let ((.def_4 (not b.counter.1__AT1)))
(let ((.def_236 (or .def_4 .def_6)))
(let ((.def_240 (or b.counter.3__AT1 .def_236)))
(let ((.def_237 (or b.counter.2__AT1 .def_236)))
(let ((.def_9 (not b.counter.2__AT1)))
(let ((.def_235 (or .def_6 .def_9)))
(let ((.def_238 (and .def_235 .def_237)))
(let ((.def_12 (not b.counter.3__AT1)))
(let ((.def_239 (or .def_12 .def_238)))
(let ((.def_241 (and .def_239 .def_240)))
(let ((.def_247 (and .def_241 .def_246)))
(let ((.def_250 (and .def_247 .def_249)))
(let ((.def_68 (<= 0.0 b.delta__AT0)))
(let ((.def_49 (not b.EVENT.0__AT0)))
(let ((.def_47 (not b.EVENT.1__AT0)))
(let ((.def_65 (and .def_47 .def_49)))
(let ((.def_66 (not .def_65)))
(let ((.def_231 (or .def_66 .def_68)))
(let ((.def_232 (or b.EVENT.1__AT0 .def_231)))
(let ((.def_167 (= b.counter.0__AT1 b.counter.0__AT0)))
(let ((.def_165 (= b.counter.1__AT1 b.counter.1__AT0)))
(let ((.def_163 (= b.counter.2__AT1 b.counter.2__AT0)))
(let ((.def_162 (= b.counter.3__AT1 b.counter.3__AT0)))
(let ((.def_164 (and .def_162 .def_163)))
(let ((.def_166 (and .def_164 .def_165)))
(let ((.def_168 (and .def_166 .def_167)))
(let ((.def_228 (or .def_66 .def_168)))
(let ((.def_229 (or b.EVENT.1__AT0 .def_228)))
(let ((.def_220 (* (- 5.0) b.speed_y__AT1)))
(let ((.def_95 (* (- 49.0) b.delta__AT0)))
(let ((.def_221 (+ .def_95 .def_220)))
(let ((.def_84 (* 5.0 b.speed_y__AT0)))
(let ((.def_222 (+ .def_84 .def_221)))
(let ((.def_223 (= .def_222 0.0 )))
(let ((.def_209 (* b.speed_y__AT0 b.delta__AT0)))
(let ((.def_210 (* 10.0 .def_209)))
(let ((.def_207 (* b.delta__AT0 b.delta__AT0)))
(let ((.def_208 (* (- 49.0) .def_207)))
(let ((.def_211 (+ .def_208 .def_210)))
(let ((.def_213 (* (- 10.0) b.y__AT1)))
(let ((.def_216 (+ .def_213 .def_211)))
(let ((.def_78 (* 10.0 b.y__AT0)))
(let ((.def_217 (+ .def_78 .def_216)))
(let ((.def_218 (= .def_217 0.0 )))
(let ((.def_224 (and .def_218 .def_223)))
(let ((.def_225 (or .def_66 .def_224)))
(let ((.def_173 (= b.y__AT0 b.y__AT1)))
(let ((.def_161 (= b.speed_y__AT0 b.speed_y__AT1)))
(let ((.def_204 (and .def_161 .def_173)))
(let ((.def_201 (= b.delta__AT0 0.0 )))
(let ((.def_202 (and .def_65 .def_201)))
(let ((.def_203 (not .def_202)))
(let ((.def_205 (or .def_203 .def_204)))
(let ((.def_206 (or b.EVENT.1__AT0 .def_205)))
(let ((.def_226 (and .def_206 .def_225)))
(let ((.def_183 (= b.time__AT0 b.time__AT1)))
(let ((.def_195 (and .def_173 .def_183)))
(let ((.def_196 (and .def_161 .def_195)))
(let ((.def_197 (and .def_168 .def_196)))
(let ((.def_198 (or .def_47 .def_197)))
(let ((.def_186 (* (- 1.0) b.time__AT1)))
(let ((.def_189 (+ b.delta__AT0 .def_186)))
(let ((.def_190 (+ b.time__AT0 .def_189)))
(let ((.def_191 (= .def_190 0.0 )))
(let ((.def_192 (or .def_66 .def_191)))
(let ((.def_193 (or b.EVENT.1__AT0 .def_192)))
(let ((.def_184 (or .def_65 .def_183)))
(let ((.def_185 (or b.EVENT.1__AT0 .def_184)))
(let ((.def_194 (and .def_185 .def_193)))
(let ((.def_199 (and .def_194 .def_198)))
(let ((.def_179 (= .def_66 b.event_is_timed__AT1)))
(let ((.def_177 (= b.event_is_timed__AT0 .def_65)))
(let ((.def_180 (and .def_177 .def_179)))
(let ((.def_169 (and .def_161 .def_168)))
(let ((.def_120 (<= 0.0 b.speed_y__AT0)))
(let ((.def_121 (not .def_120)))
(let ((.def_119 (= b.y__AT0 0.0 )))
(let ((.def_122 (and .def_119 .def_121)))
(let ((.def_170 (or .def_122 .def_169)))
(let ((.def_138 (or .def_6 b.counter.0__AT0)))
(let ((.def_30 (not b.counter.0__AT0)))
(let ((.def_137 (or b.counter.0__AT1 .def_30)))
(let ((.def_139 (and .def_137 .def_138)))
(let ((.def_140 (and .def_4 .def_139)))
(let ((.def_141 (or b.counter.1__AT0 .def_140)))
(let ((.def_28 (not b.counter.1__AT0)))
(let ((.def_136 (or b.counter.1__AT1 .def_28)))
(let ((.def_142 (and .def_136 .def_141)))
(let ((.def_153 (and .def_9 .def_142)))
(let ((.def_154 (or b.counter.2__AT0 .def_153)))
(let ((.def_148 (and .def_4 .def_30)))
(let ((.def_149 (or b.counter.1__AT0 .def_148)))
(let ((.def_150 (and .def_136 .def_149)))
(let ((.def_151 (and b.counter.2__AT1 .def_150)))
(let ((.def_33 (not b.counter.2__AT0)))
(let ((.def_152 (or .def_33 .def_151)))
(let ((.def_155 (and .def_152 .def_154)))
(let ((.def_156 (and b.counter.3__AT1 .def_155)))
(let ((.def_157 (or b.counter.3__AT0 .def_156)))
(let ((.def_143 (and b.counter.2__AT1 .def_142)))
(let ((.def_144 (or b.counter.2__AT0 .def_143)))
(let ((.def_132 (or b.counter.1__AT1 b.counter.1__AT0)))
(let ((.def_130 (and .def_4 b.counter.0__AT1)))
(let ((.def_131 (or .def_28 .def_130)))
(let ((.def_133 (and .def_131 .def_132)))
(let ((.def_134 (and .def_9 .def_133)))
(let ((.def_135 (or .def_33 .def_134)))
(let ((.def_145 (and .def_135 .def_144)))
(let ((.def_146 (and .def_12 .def_145)))
(let ((.def_36 (not b.counter.3__AT0)))
(let ((.def_147 (or .def_36 .def_146)))
(let ((.def_158 (and .def_147 .def_157)))
(let ((.def_125 (* (- 1.0) speed_loss__AT0)))
(let ((.def_126 (+ 1.0 .def_125)))
(let ((.def_124 (* (- 1.0) b.speed_y__AT0)))
(let ((.def_127 (* .def_124 .def_126)))
(let ((.def_129 (= .def_127 b.speed_y__AT1)))
(let ((.def_159 (and .def_129 .def_158)))
(let ((.def_123 (not .def_122)))
(let ((.def_160 (or .def_123 .def_159)))
(let ((.def_171 (and .def_160 .def_170)))
(let ((.def_174 (and .def_171 .def_173)))
(let ((.def_175 (or .def_65 .def_174)))
(let ((.def_176 (or b.EVENT.1__AT0 .def_175)))
(let ((.def_181 (and .def_176 .def_180)))
(let ((.def_200 (and .def_181 .def_199)))
(let ((.def_227 (and .def_200 .def_226)))
(let ((.def_230 (and .def_227 .def_229)))
(let ((.def_233 (and .def_230 .def_232)))
(let ((.def_234 (and .def_47 .def_233)))
(let ((.def_251 (and .def_234 .def_250)))
(let ((.def_31 (and .def_28 .def_30)))
(let ((.def_34 (and .def_31 .def_33)))
(let ((.def_37 (and .def_34 .def_36)))
(let ((.def_252 (and .def_37 .def_251)))
(let ((.def_73 (* 49.0 b.delta__AT0)))
(let ((.def_74 (* b.delta__AT0 .def_73)))
(let ((.def_76 (* (- 1.0) .def_74)))
(let ((.def_70 (* 10.0 b.speed_y__AT0)))
(let ((.def_71 (* b.delta__AT0 .def_70)))
(let ((.def_77 (+ .def_71 .def_76)))
(let ((.def_80 (+ .def_78 .def_77)))
(let ((.def_81 (<= 0.0 .def_80)))
(let ((.def_111 (not .def_81)))
(let ((.def_96 (+ .def_84 .def_95)))
(let ((.def_97 (<= 0.0 .def_96)))
(let ((.def_112 (and .def_97 .def_111)))
(let ((.def_107 (<= b.speed_y__AT0 0.0 )))
(let ((.def_60 (<= 0.0 b.y__AT0)))
(let ((.def_110 (or .def_60 .def_107)))
(let ((.def_113 (or .def_110 .def_112)))
(let ((.def_106 (<= b.y__AT0 0.0 )))
(let ((.def_108 (and .def_106 .def_107)))
(let ((.def_101 (<= .def_96 0.0 )))
(let ((.def_102 (not .def_101)))
(let ((.def_99 (= .def_80 0.0 )))
(let ((.def_100 (not .def_99)))
(let ((.def_103 (or .def_100 .def_102)))
(let ((.def_98 (or .def_81 .def_97)))
(let ((.def_104 (and .def_98 .def_103)))
(let ((.def_85 (* b.speed_y__AT0 .def_84)))
(let ((.def_87 (* 98.0 b.y__AT0)))
(let ((.def_89 (+ .def_87 .def_85)))
(let ((.def_92 (<= .def_89 0.0 )))
(let ((.def_93 (not .def_92)))
(let ((.def_105 (or .def_93 .def_104)))
(let ((.def_109 (or .def_105 .def_108)))
(let ((.def_114 (and .def_109 .def_113)))
(let ((.def_90 (<= 0.0 .def_89)))
(let ((.def_91 (not .def_90)))
(let ((.def_115 (or .def_91 .def_114)))
(let ((.def_69 (not .def_68)))
(let ((.def_82 (or .def_69 .def_81)))
(let ((.def_116 (and .def_82 .def_115)))
(let ((.def_117 (or .def_66 .def_116)))
(let ((.def_61 (and .def_59 .def_60)))
(let ((.def_50 (or .def_47 .def_49)))
(let ((.def_40 (or .def_28 .def_30)))
(let ((.def_44 (or b.counter.3__AT0 .def_40)))
(let ((.def_41 (or b.counter.2__AT0 .def_40)))
(let ((.def_39 (or .def_30 .def_33)))
(let ((.def_42 (and .def_39 .def_41)))
(let ((.def_43 (or .def_36 .def_42)))
(let ((.def_45 (and .def_43 .def_44)))
(let ((.def_51 (and .def_45 .def_50)))
(let ((.def_62 (and .def_51 .def_61)))
(let ((.def_25 (= b.speed_y__AT0 0.0 )))
(let ((.def_22 (= b.y__AT0 10.0 )))
(let ((.def_17 (= b.time__AT0 0.0 )))
(let ((.def_19 (and .def_17 b.event_is_timed__AT0)))
(let ((.def_23 (and .def_19 .def_22)))
(let ((.def_26 (and .def_23 .def_25)))
(let ((.def_38 (and .def_26 .def_37)))
(let ((.def_63 (and .def_38 .def_62)))
(let ((.def_7 (and .def_4 .def_6)))
(let ((.def_10 (and .def_7 .def_9)))
(let ((.def_13 (and .def_10 .def_12)))
(let ((.def_14 (not .def_13)))
(let ((.def_64 (and .def_14 .def_63)))
(let ((.def_118 (and .def_64 .def_117)))
(let ((.def_253 (and .def_118 .def_252)))
(let ((.def_302 (and .def_253 .def_301)))
.def_302)))))))))))))))))))))))))))))))))))))))))))))))))))))))))))))))))))))))))))))))))))))))))))))))))))))))))))))))))))))))))))))))))))))))))))))))))))))))))))))))))))))))))))))))))))))))))))))))))))))))))))))))))))))))))))))))))))))))))))))))))))))))))))))))))
(check-sat)
(exit)
